
Gurobi 12.0.0 (win64) logging started Wed May  6 19:15:56 2026

Set parameter LogFile to value "C:\Users\Asus\Documents\GitHub\logistics-model2\internal-logistics-model2\results\SR_SV_RD\case1\result_SR_SV_RD_case1_P5_eps9999_2026_05_06_19_15.log"
Gurobi Optimizer version 12.0.0 build v12.0.0rc1 (win64 - Windows 10.0 (19045.2))

CPU model: 12th Gen Intel(R) Core(TM) i7-12650H, instruction set [SSE2|AVX|AVX2]
Thread count: 10 physical cores, 16 logical processors, using up to 16 threads

Non-default parameters:
TimeLimit  600
MIPGap  0.01
Presolve  2

Optimize a model with 3852 rows, 1123 columns and 19434 nonzeros
Model fingerprint: 0x3959631f
Variable types: 158 continuous, 965 integer (935 binary)
Coefficient statistics:
  Matrix range     [1e+00, 5e+02]
  Objective range  [1e-03, 1e+00]
  Bounds range     [1e+00, 3e+01]
  RHS range        [1e+00, 1e+04]
Presolve removed 3433 rows and 975 columns
Presolve time: 0.13s
Presolved: 419 rows, 148 columns, 2061 nonzeros
Variable types: 33 continuous, 115 integer (105 binary)
Root relaxation presolve removed 12 rows and 0 columns
Root relaxation presolved: 407 rows, 159 columns, 2039 nonzeros


Root relaxation: objective 1.500000e-02, 91 iterations, 0.04 seconds (0.00 work units)

    Nodes    |    Current Node    |     Objective Bounds      |     Work
 Expl Unexpl |  Obj  Depth IntInf | Incumbent    BestBd   Gap | It/Node Time

     0     0    0.01500    0    9          -    0.01500      -     -    0s
H    0     0                      92.1870000    0.01500   100%     -    0s
     0     0    0.01500    0   29   92.18700    0.01500   100%     -    0s
     0     0    0.01500    0   24   92.18700    0.01500   100%     -    0s
     0     0    0.01500    0   18   92.18700    0.01500   100%     -    0s
     0     0    0.01503    0   25   92.18700    0.01503   100%     -    0s
     0     0    0.01580    0   21   92.18700    0.01580   100%     -    0s
     0     0    0.02242    0   34   92.18700    0.02242   100%     -    0s
     0     0    0.02420    0   32   92.18700    0.02420   100%     -    0s
     0     0    0.03271    0   35   92.18700    0.03271   100%     -    0s
     0     0    0.03982    0   37   92.18700    0.03982   100%     -    0s
     0     0    0.05119    0   36   92.18700    0.05119   100%     -    0s
     0     0    0.05133    0   39   92.18700    0.05133   100%     -    0s
     0     0    0.05712    0   35   92.18700    0.05712   100%     -    0s
     0     0    0.05723    0   35   92.18700    0.05723   100%     -    0s
     0     0    0.05745    0   36   92.18700    0.05745   100%     -    0s
     0     0    0.05754    0   35   92.18700    0.05754   100%     -    0s
     0     0    0.05765    0   36   92.18700    0.05765   100%     -    0s
     0     0    0.05841    0   38   92.18700    0.05841   100%     -    0s
     0     0    0.05917    0   37   92.18700    0.05917   100%     -    0s
     0     0    0.05937    0   38   92.18700    0.05937   100%     -    0s
     0     0    0.05947    0   31   92.18700    0.05947   100%     -    0s
H    0     0                      91.1900000    0.05948   100%     -    0s
     0     0    0.05989    0   34   91.19000    0.05989   100%     -    0s
     0     0    0.06051    0   34   91.19000    0.06051   100%     -    0s
     0     0    0.06051    0   34   91.19000    0.06051   100%     -    0s
     0     0    0.06104    0   39   91.19000    0.06104   100%     -    0s
     0     0    0.06108    0   43   91.19000    0.06108   100%     -    0s
     0     0    0.06130    0   45   91.19000    0.06130   100%     -    0s
     0     0    0.06132    0   46   91.19000    0.06132   100%     -    0s
     0     0    0.06132    0   46   91.19000    0.06132   100%     -    0s
     0     0    0.06132    0   46   91.19000    0.06132   100%     -    0s
     0     0    0.06132    0   43   91.19000    0.06132   100%     -    0s
     0     2    0.06132    0   42   91.19000    0.06132   100%     -    0s
H   46    69                      89.1760000    0.06272   100%  27.9    0s
H  352   324                      89.1720000    0.06272   100%  18.7    0s
H  838   608                      85.1600000    0.06988   100%  15.9    0s
H 2899  1314                      81.1080000    0.07307   100%  14.7    0s
H 2913  1258                      80.0970000    0.07307   100%  14.6    0s
H 2914  1195                      77.0910000    0.07307   100%  14.6    0s

Cutting planes:
  Learned: 14
  Gomory: 4
  Cover: 8
  Implied bound: 55
  Projected implied bound: 1
  MIR: 126
  StrongCG: 8
  Flow cover: 278
  Inf proof: 40
  Zero half: 3
  RLT: 47
  Relax-and-lift: 38
  PSD: 2

Explored 10942 nodes (408972 simplex iterations) in 2.54 seconds (2.43 work units)
Thread count was 16 (of 16 available processors)

Solution count 8: 77.091 80.097 81.108 ... 92.187

Optimal solution found (tolerance 1.00e-02)
Best objective 7.709100000000e+01, best bound 7.709100000000e+01, gap 0.0000%
